Running symmetry.mzn with ins-1.dzn
8 8
4
3 3 0 5
3 5 5 0
5 3 3 5
5 5 0 0
----------
==========
%%%mzn-stat: initTime=0.01176
%%%mzn-stat: solveTime=0.004232
%%%mzn-stat: solutions=3
%%%mzn-stat: variables=18
%%%mzn-stat: propagators=15
%%%mzn-stat: propagations=360
%%%mzn-stat: nodes=46
%%%mzn-stat: failures=13
%%%mzn-stat: restarts=4
%%%mzn-stat: peakDepth=11
%%%mzn-stat-end
Finished in 179msec
Running symmetry.mzn with ins-2.dzn
9 9
5
3 3 6 6
3 4 3 5
3 5 3 0
3 6 6 0
3 9 0 0
----------
==========
%%%mzn-stat: initTime=0.00321
%%%mzn-stat: solveTime=0.002766
%%%mzn-stat: solutions=8
%%%mzn-stat: variables=23
%%%mzn-stat: propagators=16
%%%mzn-stat: propagations=1917
%%%mzn-stat: nodes=202
%%%mzn-stat: failures=64
%%%mzn-stat: restarts=9
%%%mzn-stat: peakDepth=11
%%%mzn-stat-end
Finished in 122msec
Running symmetry.mzn with ins-3.dzn
10 10
6
3 3 0 7
3 4 3 6
3 6 7 0
3 7 0 0
4 4 6 6
4 6 3 0
----------
==========
%%%mzn-stat: initTime=0.00074
%%%mzn-stat: solveTime=0.001289
%%%mzn-stat: solutions=6
%%%mzn-stat: variables=26
%%%mzn-stat: propagators=19
%%%mzn-stat: propagations=3069
%%%mzn-stat: nodes=312
%%%mzn-stat: failures=121
%%%mzn-stat: restarts=7
%%%mzn-stat: peakDepth=17
%%%mzn-stat-end
Finished in 124msec
Running symmetry.mzn with ins-4.dzn
11 11
7
3 3 0 8
3 4 0 4
3 5 8 6
3 6 8 0
5 3 3 8
5 4 3 4
8 4 0 0
----------
==========
%%%mzn-stat: initTime=0.00053
%%%mzn-stat: solveTime=0.051296
%%%mzn-stat: solutions=7
%%%mzn-stat: variables=30
%%%mzn-stat: propagators=21
%%%mzn-stat: propagations=168940
%%%mzn-stat: nodes=12095
%%%mzn-stat: failures=5981
%%%mzn-stat: restarts=12
%%%mzn-stat: peakDepth=21
%%%mzn-stat-end
Finished in 172msec
Running symmetry.mzn with ins-5.dzn
12 12
8
3 3 0 6
3 4 6 8
3 5 9 7
3 6 0 0
3 7 9 0
3 8 6 0
3 9 3 0
6 3 0 9
----------
==========
%%%mzn-stat: initTime=0.000547
%%%mzn-stat: solveTime=0.274322
%%%mzn-stat: solutions=9
%%%mzn-stat: variables=34
%%%mzn-stat: propagators=23
%%%mzn-stat: propagations=769921
%%%mzn-stat: nodes=81831
%%%mzn-stat: failures=40772
%%%mzn-stat: restarts=30
%%%mzn-stat: peakDepth=31
%%%mzn-stat-end
Finished in 396msec
Running symmetry.mzn with ins-6.dzn
13 13
9
3 3 0 10
3 4 0 6
3 5 10 8
3 6 0 0
3 7 3 6
3 8 10 0
4 3 6 10
4 4 6 6
7 6 3 0
----------
==========
%%%mzn-stat: initTime=0.001056
%%%mzn-stat: solveTime=0.654551
%%%mzn-stat: solutions=10
%%%mzn-stat: variables=38
%%%mzn-stat: propagators=25
%%%mzn-stat: propagations=1493069
%%%mzn-stat: nodes=177123
%%%mzn-stat: failures=88336
%%%mzn-stat: restarts=45
%%%mzn-stat: peakDepth=41
%%%mzn-stat-end
Finished in 771msec
Running symmetry.mzn with ins-7.dzn
14 14
9
3 3 5 11
3 4 5 7
3 5 11 9
3 6 8 8
3 7 5 0
3 8 8 0
3 9 11 0
5 4 0 10
5 10 0 0
----------
==========
%%%mzn-stat: initTime=0.000582
%%%mzn-stat: solveTime=0.443058
%%%mzn-stat: solutions=10
%%%mzn-stat: variables=38
%%%mzn-stat: propagators=25
%%%mzn-stat: propagations=976330
%%%mzn-stat: nodes=102829
%%%mzn-stat: failures=51221
%%%mzn-stat: restarts=37
%%%mzn-stat: peakDepth=34
%%%mzn-stat-end
Finished in 574msec
Running symmetry.mzn with ins-8.dzn
15 15
10
3 3 3 9
3 4 3 5
3 5 3 0
3 6 9 9
3 7 12 8
3 8 12 0
3 9 9 0
3 12 0 0
3 15 6 0
6 3 0 12
----------
==========
%%%mzn-stat: initTime=0.000684
%%%mzn-stat: solveTime=3.73533
%%%mzn-stat: solutions=15
%%%mzn-stat: variables=43
%%%mzn-stat: propagators=26
%%%mzn-stat: propagations=8411127
%%%mzn-stat: nodes=874451
%%%mzn-stat: failures=436482
%%%mzn-stat: restarts=142
%%%mzn-stat: peakDepth=31
%%%mzn-stat-end
Finished in 3s 852msec
Running symmetry.mzn with ins-9.dzn
16 16
10
3 3 0 13
3 4 10 12
3 5 0 8
3 6 13 10
3 7 7 9
3 8 0 0
3 10 13 0
3 12 10 0
4 7 3 9
7 9 3 0
----------
==========
%%%mzn-stat: initTime=0.000624
%%%mzn-stat: solveTime=2.93449
%%%mzn-stat: solutions=14
%%%mzn-stat: variables=42
%%%mzn-stat: propagators=27
%%%mzn-stat: propagations=5977424
%%%mzn-stat: nodes=619393
%%%mzn-stat: failures=309037
%%%mzn-stat: restarts=123
%%%mzn-stat: peakDepth=44
%%%mzn-stat-end
Finished in 3s 60msec
Running symmetry.mzn with ins-10.dzn
17 19
12
3 3 0 8
3 4 3 7
3 5 5 14
3 6 11 6
3 7 3 0
3 8 0 0
3 9 14 6
4 3 10 12
4 8 1 11
4 14 6 0
7 3 8 15
7 6 10 0
----------
%%%mzn-stat: initTime=0.000724
%%%mzn-stat: solveTime=299.896
%%%mzn-stat: solutions=10
%%%mzn-stat: variables=50
%%%mzn-stat: propagators=31
%%%mzn-stat: propagations=629646352
%%%mzn-stat: nodes=55753405
%%%mzn-stat: failures=27847652
%%%mzn-stat: restarts=4872
%%%mzn-stat: peakDepth=43
%%%mzn-stat-end
Finished in 5m 0s
Running symmetry.mzn with ins-11.dzn
18 22
16
3 3 15 12
3 4 6 18
3 5 8 11
3 6 10 16
3 7 2 11
3 8 3 0
3 10 5 8
3 11 0 0
4 3 8 3
4 4 11 12
4 5 13 16
4 6 13 6
5 3 7 0
5 4 1 18
5 5 8 6
5 6 12 0
----------
%%%mzn-stat: initTime=0.000738
%%%mzn-stat: solveTime=299.885
%%%mzn-stat: solutions=10
%%%mzn-stat: variables=66
%%%mzn-stat: propagators=39
%%%mzn-stat: propagations=446180652
%%%mzn-stat: nodes=42853286
%%%mzn-stat: failures=21391806
%%%mzn-stat: restarts=4104
%%%mzn-stat: peakDepth=50
%%%mzn-stat-end
Finished in 4m 59s
Running symmetry.mzn with ins-12.dzn
19 24
14
3 3 10 16
3 4 2 19
3 5 5 19
3 6 7 13
3 7 9 0
3 8 0 11
3 9 11 7
3 10 14 8
3 11 0 0
3 13 6 0
3 19 3 0
4 5 11 19
4 6 15 18
4 8 15 0
----------
%%%mzn-stat: initTime=0.000811
%%%mzn-stat: solveTime=299.891
%%%mzn-stat: solutions=10
%%%mzn-stat: variables=59
%%%mzn-stat: propagators=34
%%%mzn-stat: propagations=528825857
%%%mzn-stat: nodes=58411253
%%%mzn-stat: failures=29170367
%%%mzn-stat: restarts=5128
%%%mzn-stat: peakDepth=43
%%%mzn-stat-end
Finished in 5m 0s
Running symmetry.mzn with ins-13.dzn
20 24
14
3 3 17 17
3 4 15 20
3 5 5 11
3 6 1 17
3 7 6 17
3 8 17 9
3 9 14 11
3 10 11 11
3 11 5 0
3 17 8 0
4 3 9 21
4 9 16 0
4 11 11 0
4 17 1 0
----------
%%%mzn-stat: initTime=0.000712
%%%mzn-stat: solveTime=299.888
%%%mzn-stat: solutions=11
%%%mzn-stat: variables=58
%%%mzn-stat: propagators=35
%%%mzn-stat: propagations=540713829
%%%mzn-stat: nodes=57197643
%%%mzn-stat: failures=28562053
%%%mzn-stat: restarts=5063
%%%mzn-stat: peakDepth=40
%%%mzn-stat-end
Finished in 5m 0s
Running symmetry.mzn with ins-14.dzn
21 24
15
3 3 2 11
3 4 18 20
3 5 18 15
3 6 9 15
3 7 18 8
3 8 18 0
3 9 12 15
3 10 0 14
3 14 5 0
3 18 15 6
4 4 3 14
4 6 14 0
4 11 1 0
5 6 4 18
5 15 8 0
----------
%%%mzn-stat: initTime=0.001277
%%%mzn-stat: solveTime=299.89
%%%mzn-stat: solutions=12
%%%mzn-stat: variables=62
%%%mzn-stat: propagators=37
%%%mzn-stat: propagations=478571644
%%%mzn-stat: nodes=50637249
%%%mzn-stat: failures=25284644
%%%mzn-stat: restarts=4327
%%%mzn-stat: peakDepth=75
%%%mzn-stat-end
Finished in 5m 0s
Running symmetry.mzn with ins-15.dzn
22 28
16
3 3 8 25
3 4 12 14
3 5 0 0
3 6 3 0
3 7 5 14
3 8 5 6
3 9 11 19
3 10 14 18
3 11 15 0
3 12 19 0
3 13 17 15
3 14 12 0
3 22 2 6
4 3 16 12
4 19 8 0
6 4 5 21
----------
%%%mzn-stat: initTime=0.000843
%%%mzn-stat: solveTime=299.89
%%%mzn-stat: solutions=19
%%%mzn-stat: variables=66
%%%mzn-stat: propagators=39
%%%mzn-stat: propagations=448996810
%%%mzn-stat: nodes=42076690
%%%mzn-stat: failures=21004223
%%%mzn-stat: restarts=4113
%%%mzn-stat: peakDepth=53
%%%mzn-stat-end
Finished in 5m 0s
Running symmetry.mzn with ins-16.dzn
23 30
19
3 3 20 19
3 4 19 6
3 5 0 25
3 6 1 12
3 7 0 18
3 8 11 11
3 9 20 10
3 10 3 20
3 11 12 19
3 12 1 0
3 14 14 4
3 20 4 0
4 3 19 3
4 4 13 0
4 6 7 11
4 10 6 20
4 11 9 0
4 12 16 18
6 3 17 0
----------
%%%mzn-stat: initTime=0.000799
%%%mzn-stat: solveTime=299.891
%%%mzn-stat: solutions=12
%%%mzn-stat: variables=78
%%%mzn-stat: propagators=45
%%%mzn-stat: propagations=424721082
%%%mzn-stat: nodes=42981743
%%%mzn-stat: failures=21450394
%%%mzn-stat: restarts=4106
%%%mzn-stat: peakDepth=54
%%%mzn-stat-end
Finished in 5m 0s
Running symmetry.mzn with ins-17.dzn
24 28
18
3 3 21 25
3 4 21 21
3 5 21 16
3 6 0 18
3 7 21 9
3 8 0 10
3 9 19 0
3 10 0 0
3 12 8 16
3 14 6 0
3 18 18 9
3 24 3 0
4 3 14 13
4 4 3 24
4 5 14 8
4 12 12 16
5 8 14 0
5 16 9 0
----------
%%%mzn-stat: initTime=0.000775
%%%mzn-stat: solveTime=299.889
%%%mzn-stat: solutions=19
%%%mzn-stat: variables=74
%%%mzn-stat: propagators=43
%%%mzn-stat: propagations=381473790
%%%mzn-stat: nodes=41440795
%%%mzn-stat: failures=20681564
%%%mzn-stat: restarts=4111
%%%mzn-stat: peakDepth=75
%%%mzn-stat-end
Finished in 4m 59s
Running symmetry.mzn with ins-18.dzn
25 34
19
3 3 8 31
3 4 16 18
3 5 20 28
3 6 8 25
3 7 21 18
3 8 18 9
3 9 18 0
3 10 10 13
3 11 12 23
3 13 10 0
3 14 1 17
3 17 1 0
3 18 22 0
3 19 4 0
3 25 7 0
4 5 14 13
4 7 4 25
4 13 13 0
6 3 17 25
----------
%%%mzn-stat: initTime=0.001149
%%%mzn-stat: solveTime=299.887
%%%mzn-stat: solutions=13
%%%mzn-stat: variables=79
%%%mzn-stat: propagators=44
%%%mzn-stat: propagations=430662667
%%%mzn-stat: nodes=41959807
%%%mzn-stat: failures=20940817
%%%mzn-stat: restarts=4106
%%%mzn-stat: peakDepth=55
%%%mzn-stat-end
Finished in 5m 0s
Running symmetry.mzn with ins-19.dzn
26 37
22
3 3 11 34
3 4 3 33
3 5 5 21
3 6 19 25
3 7 8 28
3 8 19 17
3 9 6 12
3 10 16 25
3 11 16 14
3 12 5 0
3 14 1 19
3 15 13 14
3 16 22 0
3 17 19 0
3 19 1 0
4 3 4 26
4 4 19 31
4 5 12 29
4 7 8 21
4 8 9 11
4 11 9 0
4 14 13 0
----------
%%%mzn-stat: initTime=0.001945
%%%mzn-stat: solveTime=299.89
%%%mzn-stat: solutions=12
%%%mzn-stat: variables=90
%%%mzn-stat: propagators=51
%%%mzn-stat: propagations=342587021
%%%mzn-stat: nodes=35316693
%%%mzn-stat: failures=17617995
%%%mzn-stat: restarts=3408
%%%mzn-stat: peakDepth=66
%%%mzn-stat-end
Finished in 5m 0s
Running symmetry.mzn with ins-20.dzn
27 36
21
3 3 2 14
3 4 8 28
3 5 13 30
3 6 20 17
3 7 4 28
3 8 6 19
3 9 3 19
3 10 14 20
3 11 19 0
3 12 17 20
3 19 0 17
3 20 15 0
3 21 23 0
4 3 18 32
4 4 23 28
4 6 19 11
4 7 23 21
4 8 10 20
4 14 1 0
4 19 5 0
4 20 11 0
----------
%%%mzn-stat: initTime=0.000881
%%%mzn-stat: solveTime=299.894
%%%mzn-stat: solutions=13
%%%mzn-stat: variables=86
%%%mzn-stat: propagators=49
%%%mzn-stat: propagations=345205192
%%%mzn-stat: nodes=29232141
%%%mzn-stat: failures=14584743
%%%mzn-stat: restarts=2827
%%%mzn-stat: peakDepth=59
%%%mzn-stat-end
Finished in 5m 0s
Running symmetry.mzn with ins-21.dzn
28 39
22
3 3 0 36
3 4 1 18
3 5 20 31
3 6 19 16
3 7 25 9
3 8 1 6
3 9 25 0
3 10 17 25
3 11 14 25
3 16 19 0
3 17 14 0
3 21 22 0
3 23 9 0
4 3 19 36
4 4 0 14
4 5 23 31
4 8 14 17
4 13 2 23
4 23 5 0
5 6 0 0
5 9 21 22
5 13 8 23
----------
%%%mzn-stat: initTime=0.001117
%%%mzn-stat: solveTime=299.892
%%%mzn-stat: solutions=14
%%%mzn-stat: variables=90
%%%mzn-stat: propagators=51
%%%mzn-stat: propagations=314606690
%%%mzn-stat: nodes=31940419
%%%mzn-stat: failures=15934383
%%%mzn-stat: restarts=3085
%%%mzn-stat: peakDepth=68
%%%mzn-stat-end
Finished in 5m 0s
Running symmetry.mzn with ins-22.dzn
29 40
24
3 3 21 24
3 4 15 35
3 5 18 31
3 6 18 25
3 7 21 17
3 8 22 9
3 9 24 18
3 10 18 9
3 11 1 20
3 15 6 17
3 18 25 0
3 20 2 0
4 3 24 35
4 4 21 31
4 5 10 35
4 6 17 19
4 7 0 31
4 9 20 0
4 15 12 0
4 18 9 17
4 20 13 15
5 4 23 27
5 8 4 32
5 17 6 0
----------
%%%mzn-stat: initTime=0.000978
%%%mzn-stat: solveTime=299.894
%%%mzn-stat: solutions=12
%%%mzn-stat: variables=98
%%%mzn-stat: propagators=55
%%%mzn-stat: propagations=329234966
%%%mzn-stat: nodes=26373742
%%%mzn-stat: failures=13154039
%%%mzn-stat: restarts=2569
%%%mzn-stat: peakDepth=61
%%%mzn-stat-end
Finished in 5m 0s
Running symmetry.mzn with ins-23.dzn
30 38
20
3 3 24 32
3 4 21 32
3 5 9 30
3 6 23 19
3 7 5 30
3 8 2 30
3 9 18 10
3 10 18 0
3 11 27 25
3 13 0 16
3 14 14 0
3 16 0 0
3 19 23 0
3 25 26 0
4 3 21 29
4 4 22 25
4 6 16 23
4 8 13 30
4 9 14 14
11 30 3 0
----------
%%%mzn-stat: initTime=0.000848
%%%mzn-stat: solveTime=299.877
%%%mzn-stat: solutions=18
%%%mzn-stat: variables=83
%%%mzn-stat: propagators=46
%%%mzn-stat: propagations=397515392
%%%mzn-stat: nodes=38686825
%%%mzn-stat: failures=19305367
%%%mzn-stat: restarts=3790
%%%mzn-stat: peakDepth=59
%%%mzn-stat-end
Finished in 5m 0s
Running symmetry.mzn with ins-24.dzn
31 38
19
3 3 28 26
3 4 19 16
3 5 7 31
3 6 10 31
3 7 25 26
3 8 24 0
3 9 22 28
3 10 18 28
3 11 23 8
3 12 26 14
3 13 15 22
3 14 27 0
3 22 15 0
3 31 0 0
4 3 18 13
4 7 3 31
4 8 20 20
4 13 18 0
12 31 3 0
----------
%%%mzn-stat: initTime=0.000859
%%%mzn-stat: solveTime=299.894
%%%mzn-stat: solutions=19
%%%mzn-stat: variables=79
%%%mzn-stat: propagators=44
%%%mzn-stat: propagations=420419116
%%%mzn-stat: nodes=39366592
%%%mzn-stat: failures=19645626
%%%mzn-stat: restarts=3856
%%%mzn-stat: peakDepth=51
%%%mzn-stat-end
Finished in 5m 0s
Running symmetry.mzn with ins-25.dzn
32 48
27
3 3 17 44
3 4 21 44
3 5 21 36
3 6 15 27
3 7 29 37
3 8 16 33
3 9 28 28
3 10 29 18
3 11 24 36
3 12 23 24
3 13 13 34
3 14 4 22
3 15 26 0
3 18 29 0
3 22 4 0
3 23 9 0
3 24 0 0
3 25 18 0
3 27 14 0
4 3 19 41
4 4 9 34
4 5 4 36
4 6 22 18
4 7 0 24
4 10 19 25
4 11 10 23
4 18 21 0
----------
%%%mzn-stat: initTime=0.00098
%%%mzn-stat: solveTime=299.891
%%%mzn-stat: solutions=15
%%%mzn-stat: variables=110
%%%mzn-stat: propagators=61
%%%mzn-stat: propagations=269661357
%%%mzn-stat: nodes=27450732
%%%mzn-stat: failures=13688119
%%%mzn-stat: restarts=2620
%%%mzn-stat: peakDepth=70
%%%mzn-stat-end
Finished in 4m 59s
Running symmetry.mzn with ins-26.dzn
33 47
23
3 3 18 42
3 4 19 14
3 5 15 42
3 6 28 31
3 7 30 17
3 8 10 24
3 9 24 33
3 10 25 0
3 13 13 25
3 14 17 0
3 15 14 0
3 17 16 25
3 24 11 0
3 30 0 0
3 33 22 0
4 3 26 42
4 4 12 38
4 6 0 33
4 10 15 15
4 12 6 33
4 14 25 17
4 17 28 0
7 33 3 0
----------
%%%mzn-stat: initTime=0.000921
%%%mzn-stat: solveTime=299.889
%%%mzn-stat: solutions=15
%%%mzn-stat: variables=95
%%%mzn-stat: propagators=52
%%%mzn-stat: propagations=295589772
%%%mzn-stat: nodes=29386262
%%%mzn-stat: failures=14659501
%%%mzn-stat: restarts=2860
%%%mzn-stat: peakDepth=53
%%%mzn-stat-end
Finished in 5m 0s
Running symmetry.mzn with ins-27.dzn
34 43
21
3 3 23 25
3 4 16 34
3 5 27 38
3 6 7 34
3 7 10 34
3 8 13 34
3 9 19 34
3 10 3 11
3 11 24 14
3 12 0 25
3 13 31 25
3 14 0 11
3 21 4 22
3 22 6 0
3 25 30 0
3 34 27 0
4 4 24 34
4 5 0 37
4 11 0 0
4 14 21 0
12 34 9 0
----------
%%%mzn-stat: initTime=0.000931
%%%mzn-stat: solveTime=299.893
%%%mzn-stat: solutions=21
%%%mzn-stat: variables=87
%%%mzn-stat: propagators=48
%%%mzn-stat: propagations=324918649
%%%mzn-stat: nodes=28576781
%%%mzn-stat: failures=14258113
%%%mzn-stat: restarts=2795
%%%mzn-stat: peakDepth=57
%%%mzn-stat-end
Finished in 5m 0s
Running symmetry.mzn with ins-28.dzn
35 46
22
3 3 26 22
3 4 32 35
3 5 12 41
3 6 32 29
3 7 23 19
3 8 25 33
3 9 28 33
3 10 6 20
3 12 4 30
3 19 23 0
3 22 26 0
4 3 20 35
4 4 23 41
4 5 1 23
4 6 14 35
4 7 25 26
4 8 7 35
4 12 29 17
4 17 30 0
4 20 4 0
4 23 0 0
14 35 9 0
----------
%%%mzn-stat: initTime=0.000896
%%%mzn-stat: solveTime=299.891
%%%mzn-stat: solutions=14
%%%mzn-stat: variables=91
%%%mzn-stat: propagators=50
%%%mzn-stat: propagations=311597461
%%%mzn-stat: nodes=28559215
%%%mzn-stat: failures=14248812
%%%mzn-stat: restarts=2783
%%%mzn-stat: peakDepth=60
%%%mzn-stat-end
Finished in 5m 0s
Running symmetry.mzn with ins-29.dzn
36 48
23
3 3 28 40
3 4 28 36
3 5 31 42
3 6 32 36
3 7 1 38
3 8 1 30
3 9 2 21
3 10 2 11
3 11 1 0
3 12 22 31
3 14 28 22
3 15 25 14
3 16 21 15
3 24 17 15
3 36 33 0
4 3 0 45
4 11 6 36
4 22 29 0
5 3 14 39
5 4 23 43
5 14 23 0
5 15 18 0
12 36 5 0
----------
%%%mzn-stat: initTime=0.000983
%%%mzn-stat: solveTime=299.889
%%%mzn-stat: solutions=18
%%%mzn-stat: variables=95
%%%mzn-stat: propagators=52
%%%mzn-stat: propagations=294685284
%%%mzn-stat: nodes=27135547
%%%mzn-stat: failures=13537404
%%%mzn-stat: restarts=2577
%%%mzn-stat: peakDepth=60
%%%mzn-stat-end
Finished in 5m 0s
Running symmetry.mzn with ins-30.dzn
37 51
27
3 3 26 44
3 4 22 19
3 5 32 35
3 6 20 13
3 7 23 38
3 8 29 22
3 9 0 21
3 11 34 18
3 12 17 17
3 13 20 0
3 14 4 37
3 17 16 0
3 18 34 0
3 21 0 0
4 3 33 40
4 4 17 34
4 5 18 29
4 6 33 29
4 10 8 37
4 22 30 0
4 24 25 0
5 3 18 38
5 4 14 47
5 6 26 38
5 10 12 37
5 14 22 24
12 37 3 0
----------
%%%mzn-stat: initTime=0.001006
%%%mzn-stat: solveTime=299.891
%%%mzn-stat: solutions=17
%%%mzn-stat: variables=111
%%%mzn-stat: propagators=60
%%%mzn-stat: propagations=259496531
%%%mzn-stat: nodes=20949039
%%%mzn-stat: failures=10445580
%%%mzn-stat: restarts=2065
%%%mzn-stat: peakDepth=67
%%%mzn-stat-end
Finished in 5m 0s
